NAME: pr136
COMMENT: Quick (5min) local search tour for pr136 (113114.25058176207)
TYPE: TOUR
DIMENSION: 136
TOUR_SECTION: 1 17 19 31 29 30 6 5 18 52 85 119 130 129 135 121 117 105 110 109 108 107 132 131 136 120 118 106 99 97 98 73 74 75 76 71 83 87 100 95 96 86 84 72 62 61 66 54 50 51 53 65 63 64 39 40 38 41 42 37 25 26 43 44 36 48 55 67 59 60 49 77 78 70 82 89 101 93 94 88 122 112 111 128 127 134 123 116 104 113 126 125 133 124 115 103 114 92 91 102 90 81 69 80 79 58 57 68 56 47 35 46 45 33 11 12 4 13 22 34 23 24 21 14 3 10 9 15 32 20 16 2 8 7 27 28 -1
EOF